SumColouring/JavaBacktracker/RandomInstances/16_0.15_3.col
c File: instances/16_0.15_3.col
c
c Description: Random graph of size 16 vertices and P(0.15000000000000002) of edges between any two vertices.
p col 16 120
e 1 5
e 2 9
e 3 10
e 4 5
e 4 10
e 5 9
e 6 12
e 8 13
e 12 13