SumColouring/MiniZinc model/Experiments/16_0.15_3.col.dzn
% Data file generated from RandomInstances/16_0.15_3.col DIMACS file
size = 16;

chi = 2;

adjacency = [|0,0,0,0,1,0,0,0,0,0,0,0,0,0,0,0,
|0,0,0,0,0,0,0,0,1,0,0,0,0,0,0,0,
|0,0,0,0,0,0,0,0,0,1,0,0,0,0,0,0,
|0,0,0,0,1,0,0,0,0,1,0,0,0,0,0,0,
|1,0,0,1,0,0,0,0,1,0,0,0,0,0,0,0,
|0,0,0,0,0,0,0,0,0,0,0,1,0,0,0,0,
|0,0,0,0,0,0,0,0,0,0,0,0,0,0,0,0,
|0,0,0,0,0,0,0,0,0,0,0,0,1,0,0,0,
|0,1,0,0,1,0,0,0,0,0,0,0,0,0,0,0,
|0,0,1,1,0,0,0,0,0,0,0,0,0,0,0,0,
|0,0,0,0,0,0,0,0,0,0,0,0,0,0,0,0,
|0,0,0,0,0,1,0,0,0,0,0,0,1,0,0,0,
|0,0,0,0,0,0,0,1,0,0,0,1,0,0,0,0,
|0,0,0,0,0,0,0,0,0,0,0,0,0,0,0,0,
|0,0,0,0,0,0,0,0,0,0,0,0,0,0,0,0,
|0,0,0,0,0,0,0,0,0,0,0,0,0,0,0,0,
|];